NAME : tsp_291_sol.txt
COMMENT : OR-Tools Guided Local Search
TYPE : TOUR
DIMENSION : 50
COST : 5504
STATUS : ROUTING_SUCCESS
GAP : 0.00% (Reference Solution)
TOUR_SECTION
1
38
24
19
14
36
27
31
47
7
30
5
48
20
28
34
33
8
16
49
11
40
15
21
23
26
43
2
25
4
44
3
6
12
46
9
17
18
50
29
42
35
37
22
45
39
10
32
13
41
-1
